##### Initialization #####

units lj 
dimension 3 
atom_style molecular 
boundary p p p 

##### System definition #####

# Simulation box

region box prism 7.22872 12.7713 7.22872 12.7713 7.22872 12.7713  0 0 0 # unit box
create_box 4 box & 
bond/types 1 & 
angle/types 1 & 
extra/bond/per/atom 6 &
extra/angle/per/atom 10 &

# atom generation
read_data sigma.data add append
velocity all create 0.0 4928459 rot yes dist gaussian

# Force field

comm_modify mode single cutoff 2.1999999999999997 vel yes 

pair_style lj/cut 1.9082
pair_modify shift yes 
pair_coeff 1 1 1.0 1.7 1.9082
pair_coeff 2 2 1.0 1.7 1.9082
pair_coeff 1 2 1.0 1.7 1.9082
pair_coeff 1 3 1.0 1.7 1.9082
pair_coeff 2 3 1.0 1.7 1.9082
pair_coeff 3 3 1.0 1.7 1.9082
pair_coeff 1 4 1.0 1.7 1.9082
pair_coeff 2 4 1.0 1.7 1.9082
pair_coeff 3 4 1.0 1.7 1.9082
pair_coeff 4 4 1.0 1.7 1.9082

bond_style fene
special_bonds fene
bond_coeff 1 30.0 1.5 1.0 1.0

angle_style cosine
angle_coeff 1 20

##### Visualisation #####

thermo 100
dump mydmp all custom 1 dump.lammpstrj id type x y z ix iy iz

# Energy minimisation

min_style cg
minimize 1.0e-20 1.0e-20 1000000 1000000

# NVT equilibration

fix mynve all nve
fix mylgv all langevin 0.0 0.0 0.1 1530917

# Kinetic energy, potential energy and pressure
thermo 100
variable kinetic_energy equal ke
variable potential_energy equal pe
variable pressure equal press
fix myat1 all ave/time 10 1 10 v_kinetic_energy v_potential_energy v_pressure file energy.dat

### Box deformation ###

#  elongation
fix deform_box all deform 1 x scale 1.4 units box 
#fix mynpt all npt temp 0.01 0.01 1.5 y -0.91820335 -7.4630368 1.5 z -0.91820335 -7.4630368 1.5 xy 0.0 0.0 1.5 yz 0.0 0.0 1.5 xz 0.0 0.0 1.5 couple none mtk yes drag 0 # -7.4630368, Pfbar = -6.421
fix mynpt all npt temp 0.01 0.01 1.5 y -0.91820335 -7.4630368 1.5 z -0.91820335 -7.4630368 1.5 couple none mtk yes drag 0 

fix test all recenter INIT INIT INIT

##### Run #####

timestep 0.001
run 100
neigh_modify every 1 delay 5 check yes

print "All done"
